(set-logic QF_UF)
(declare-sort Group 0)
(declare-fun H1_cohomology () Group)
(declare-fun Z2 () Group)
(declare-fun Zero () Group)
(assert (= H1_cohomology Z2))
(assert (not (= Z2 Zero)))
(assert (= H1_cohomology Zero))
(check-sat)
